waescher 
ins 1
 1000 160
696
694
689
689
683
680
678
674
672
670
669
668
666
664
661
646
646
645
642
639
627
607
606
600
597
595
595
585
577
575
573
572
569
546
539
534
534
528
523
522
522
507
507
502
502
501
501
501
492
484
484
478
470
467
464
458
454
453
449
447
446
434
432
430
430
429
428
426
421
416
412
405
403
402
400
391
389
387
383
382
382
379
377
374
365
364
362
354
348
346
345
340
338
337
331
329
318
315
315
306
304
301
299
288
287
287
285
283
270
266
262
261
259
259
255
254
249
246
245
232
232
229
214
213
207
204
196
196
187
186
178
170
159
155
152
138
138
128
126
123
118
118
117
115
111
111
98
93
91
89
87
76
68
64
55
15
15
14
9
6
